40
    31    96    43    48    56    53    73    18    80    26    49    55    69    41    39    97    14    76    88    88    39    63    18    73    92    88    32     1    53    87     7    24    25    53     3    98    45    29    54    80
10     8     9     3     4     4     3     1     8     4     8     7     7     8     7     3     4     9     1     2     3     6     2    10     3     8     6    10     3     5     2     9     1     5     4     5     3     2     7     5
  1126   453   366   995  1142   312   616  1308   212   487   895   670   909  1450   454  1011   783   749   944   922  1070   213   320  1287   902  1188  1227  1457   970   394  1109  1109   253   296   607  1465   941  1175  1230   834
